p tw 197 354
1 129
1 130
1 193
1 194
2 61
2 62
2 75
2 76
3 119
3 120
3 176
3 177
4 115
4 116
4 184
4 185
5 83
5 84
5 147
5 148
6 59
6 60
6 87
6 88
7 66
7 67
7 101
7 102
7 126
7 127
7 190
7 191
8 73
8 74
8 109
9 70
9 106
9 107
10 151
10 185
10 186
11 99
11 100
11 125
11 126
12 98
12 99
12 160
12 161
13 141
13 142
13 177
13 178
14 23
14 43
14 105
14 131
14 132
14 195
15 57
15 58
15 92
15 93
16 56
16 71
16 72
17 61
17 96
17 97
18 68
18 69
18 103
18 104
19 64
19 65
19 100
19 101
20 111
20 112
20 173
20 174
21 73
21 137
21 138
22 67
22 68
22 79
22 80
23 133
23 134
23 195
24 109
24 110
24 169
24 170
24 196
24 197
25 155
25 156
25 170
25 171
26 85
26 86
26 112
26 113
27 69
27 81
27 82
27 143
27 144
27 178
27 179
28 138
28 139
28 168
28 169
29 62
29 63
29 119
30 108
30 166
30 167
31 113
31 114
31 182
31 183
32 114
32 115
32 183
32 184
33 107
33 108
33 164
33 165
34 118
34 186
34 187
35 128
35 129
35 192
35 193
36 76
36 77
36 196
37 94
37 123
37 124
37 188
37 189
38 56
38 57
38 84
38 85
38 148
38 149
39 145
39 146
39 180
39 181
40 156
40 157
40 174
40 175
41 65
41 66
41 78
41 79
41 140
41 141
42 93
42 121
42 122
43 44
43 105
43 162
44 162
44 194
44 195
45 70
45 71
45 135
45 136
45 163
45 164
46 157
46 158
46 175
46 176
47 159
47 181
47 182
48 90
48 91
48 152
48 153
49 154
49 155
49 171
49 172
49 197
50 158
50 159
50 179
50 180
51 94
51 95
51 123
52 102
52 103
52 127
52 128
53 153
53 154
53 172
53 173
54 88
54 89
54 150
54 151
55 89
55 117
55 118
56 57
57 58
58 59
59 60
60 72
61 62
62 63
63 64
64 65
65 66
66 67
67 68
68 69
70 71
71 72
73 74
74 75
75 76
76 77
77 78
78 79
79 80
80 81
81 82
82 83
83 84
84 85
85 86
86 87
87 88
88 89
90 91
90 152
91 92
92 93
94 95
95 96
96 97
97 98
98 99
99 100
100 101
101 102
102 103
103 104
104 105
106 107
106 163
107 108
109 110
110 111
111 112
112 113
113 114
114 115
115 116
116 117
117 118
119 120
120 121
121 122
122 187
123 124
124 125
125 126
126 127
127 128
128 129
129 130
130 131
131 132
132 133
133 134
134 135
135 136
136 167
137 138
137 168
138 139
139 140
140 141
141 142
142 143
143 144
144 145
145 146
146 147
147 148
148 149
149 150
150 151
152 153
153 154
154 155
155 156
156 157
157 158
158 159
160 161
160 188
161 162
163 164
164 165
165 166
166 167
168 169
169 170
170 171
171 172
172 173
173 174
174 175
175 176
176 177
177 178
178 179
179 180
180 181
181 182
182 183
183 184
184 185
185 186
186 187
188 189
189 190
190 191
191 192
192 193
193 194
194 195
196 197
